; benchmark generated from python API
(set-info :status unknown)
(declare-fun L_0 () Real)
(declare-fun S_2 () Real)
(declare-fun A_2 () Real)
(declare-fun S_1 () Real)
(declare-fun A_1 () Real)
(declare-fun A_0 () Real)
(declare-fun S_0 () Real)
(declare-fun S_3 () Real)
(declare-fun A_3 () Real)
(assert
 (let ((?x640 (* (- 1.0) A_0)))
 (let ((?x903 (* (- 1.0) S_2)))
 (let ((?x689 (* (- 1.0) A_3)))
 (let (($x1540 (<= (+ A_2 ?x689) 0.0)))
 (let (($x905 (<= (+ (* (/ 2.0 3.0) A_0) (* (/ 1.0 3.0) S_3) (* (- (/ 2.0 3.0)) L_0) ?x903) 0.0)))
 (let (($x4670 (or $x905 $x1540 (<= (+ ?x903 (* (- 1.0) L_0) A_1) 0.0) (<= (+ A_1 ?x689 ?x903 S_0 ?x640 A_2) 0.0))))
 (let (($x2253 (<= (+ (* (- 1.0) A_2) S_3 A_0 ?x903) 0.0)))
 (let (($x1272 (<= (+ (* (- 1.0) A_2) A_1) 0.0)))
 (let (($x1408 (<= (+ (* (- (/ 1.0 2.0)) A_0) (* (- (/ 1.0 2.0)) S_3) (* (/ 1.0 2.0) L_0) S_1) 0.0)))
 (and (or $x1408 $x1540) (or (<= (+ S_3 ?x689 ?x903 A_1) 0.0) $x2253) (or $x1272 $x2253) (or $x905 $x1272) (or $x905 (<= (+ S_3 ?x689 ?x903 A_1) 0.0)) $x4670 (<= (+ S_3 L_0 ?x689) 0.0) (<= (+ (* (- 1.0) S_1) S_0) 0.0) (<= (+ (* (- 1.0) S_3) S_2) 0.0) (<= (+ S_0 L_0 ?x640) 0.0) (<= (+ (* (- 1.0) A_1) S_1 L_0) 0.0) (<= (+ ?x903 S_1) 0.0) (<= (+ (* (- 1.0) A_2) S_2 L_0) 0.0))))))))))))
(check-sat)
